p cnf 570
-15 -154
-16 -157
-17 -160
-18 -163
-19 -166
-20 -169
-21 -172
-22 -175
-23 -178
-24 -181
-25 -184
-26 -187
-27 -190
-28 -193
-29 -195
-30 -197
-31 -199
-32 -201
-33 -203
-34 -205
-35 -207
-36 -209
-37 -211
-38 -213
-39 -215
-40 -217
-41 -219
-42 -221
-43 222
-44 -16
-44 28
16 -28 44
-45 16
-45 -28
-16 28 45
-46 -44
-46 -45
44 45 46
-47 -26
-47 -46
26 46 47
-48 26
-48 46
-26 -46 48
-49 -47
-49 -48
47 48 49
-50 -27
-50 -49
27 49 50
-51 27
-51 49
-27 -49 51
-52 -50
-52 -51
50 51 52
-53 -1
-53 -2
1 2 53
-54 -3
-54 -4
3 4 54
-55 -5
-55 -6
5 6 55
-56 -7
-56 -8
7 8 56
-57 -9
-57 -10
9 10 57
-58 -11
-58 -12
11 12 58
-59 -13
-59 -14
13 14 59
-60 53
-60 54
-53 -54 60
-61 55
-61 56
-55 -56 61
-62 57
-62 58
-57 -58 62
-63 60
-63 61
-60 -61 63
-64 59
-64 62
-59 -62 64
-65 63
-65 64
-63 -64 65
-66 -29
-66 -30
29 30 66
-67 -31
-67 -32
31 32 67
-68 -33
-68 -34
33 34 68
-69 -35
-69 -36
35 36 69
-70 -37
-70 -38
37 38 70
-71 -39
-71 -40
39 40 71
-72 -41
-72 -42
41 42 72
-73 66
-73 67
-66 -67 73
-74 68
-74 69
-68 -69 74
-75 70
-75 71
-70 -71 75
-76 73
-76 74
-73 -74 76
-77 72
-77 75
-72 -75 77
-78 76
-78 77
-76 -77 78
-79 29
-79 -52
-29 52 79
-80 -29
-80 52
29 -52 80
-81 -79
-81 -80
79 80 81
-82 15
-82 30
-15 -30 82
-83 -15
-83 -30
15 30 83
-84 -82
-84 -83
82 83 84
-85 16
-85 31
-16 -31 85
-86 -16
-86 -31
16 31 86
-87 -85
-87 -86
85 86 87
-88 17
-88 32
-17 -32 88
-89 -17
-89 -32
17 32 89
-90 -88
-90 -89
88 89 90
-91 18
-91 33
-18 -33 91
-92 -18
-92 -33
18 33 92
-93 -91
-93 -92
91 92 93
-94 19
-94 34
-19 -34 94
-95 -19
-95 -34
19 34 95
-96 -94
-96 -95
94 95 96
-97 20
-97 35
-20 -35 97
-98 -20
-98 -35
20 35 98
-99 -97
-99 -98
97 98 99
-100 21
-100 36
-21 -36 100
-101 -21
-101 -36
21 36 101
-102 -100
-102 -101
100 101 102
-103 22
-103 37
-22 -37 103
-104 -22
-104 -37
22 37 104
-105 -103
-105 -104
103 104 105
-106 23
-106 38
-23 -38 106
-107 -23
-107 -38
23 38 107
-108 -106
-108 -107
106 107 108
-109 24
-109 39
-24 -39 109
-110 -24
-110 -39
24 39 110
-111 -109
-111 -110
109 110 111
-112 25
-112 40
-25 -40 112
-113 -25
-113 -40
25 40 113
-114 -112
-114 -113
112 113 114
-115 26
-115 41
-26 -41 115
-116 -26
-116 -41
26 41 116
-117 -115
-117 -116
115 116 117
-118 27
-118 42
-27 -42 118
-119 -27
-119 -42
27 42 119
-120 -118
-120 -119
118 119 120
-121 -81
-121 -84
81 84 121
-122 -87
-122 -90
87 90 122
-123 -93
-123 -96
93 96 123
-124 -99
-124 -102
99 102 124
-125 -105
-125 -108
105 108 125
-126 -111
-126 -114
111 114 126
-127 -117
-127 -120
117 120 127
-128 121
-128 122
-121 -122 128
-129 123
-129 124
-123 -124 129
-130 125
-130 126
-125 -126 130
-131 128
-131 129
-128 -129 131
-132 127
-132 130
-127 -130 132
-133 131
-133 132
-131 -132 133
-134 -78
-134 133
78 -133 134
-135 43
-135 134
-43 -134 135
-136 65
-136 135
-65 -135 136
-137 -15
-137 52
15 -52 137
-138 -16
-138 -17
16 17 138
-139 -18
-139 -19
18 19 139
-140 -20
-140 -21
20 21 140
-141 -22
-141 -23
22 23 141
-142 -24
-142 -25
24 25 142
-143 -26
-143 -27
26 27 143
-144 137
-144 138
-137 -138 144
-145 139
-145 140
-139 -140 145
-146 141
-146 142
-141 -142 146
-147 144
-147 145
-144 -145 147
-148 143
-148 146
-143 -146 148
-149 147
-149 148
-147 -148 149
-150 -78
-150 149
78 -149 150
-151 65
-151 -134
-65 134 151
-152 1
-152 -65
-1 65 152
-153 -52
-153 65
52 -65 153
-154 -152
-154 -153
152 153 154
-155 2
-155 -65
-2 65 155
-156 15
-156 65
-15 -65 156
-157 -155
-157 -156
155 156 157
-158 3
-158 -65
-3 65 158
-159 16
-159 65
-16 -65 159
-160 -158
-160 -159
158 159 160
-161 4
-161 -65
-4 65 161
-162 17
-162 65
-17 -65 162
-163 -161
-163 -162
161 162 163
-164 5
-164 -65
-5 65 164
-165 18
-165 65
-18 -65 165
-166 -164
-166 -165
164 165 166
-167 6
-167 -65
-6 65 167
-168 19
-168 65
-19 -65 168
-169 -167
-169 -168
167 168 169
-170 7
-170 -65
-7 65 170
-171 20
-171 65
-20 -65 171
-172 -170
-172 -171
170 171 172
-173 8
-173 -65
-8 65 173
-174 21
-174 65
-21 -65 174
-175 -173
-175 -174
173 174 175
-176 9
-176 -65
-9 65 176
-177 22
-177 65
-22 -65 177
-178 -176
-178 -177
176 177 178
-179 10
-179 -65
-10 65 179
-180 23
-180 65
-23 -65 180
-181 -179
-181 -180
179 180 181
-182 11
-182 -65
-11 65 182
-183 24
-183 65
-24 -65 183
-184 -182
-184 -183
182 183 184
-185 12
-185 -65
-12 65 185
-186 25
-186 65
-25 -65 186
-187 -185
-187 -186
185 186 187
-188 13
-188 -65
-13 65 188
-189 26
-189 65
-26 -65 189
-190 -188
-190 -189
188 189 190
-191 14
-191 -65
-14 65 191
-192 27
-192 65
-27 -65 192
-193 -191
-193 -192
191 192 193
-194 29
-194 65
-29 -65 194
-195 -152
-195 -194
152 194 195
-196 30
-196 65
-30 -65 196
-197 -155
-197 -196
155 196 197
-198 31
-198 65
-31 -65 198
-199 -158
-199 -198
158 198 199
-200 32
-200 65
-32 -65 200
-201 -161
-201 -200
161 200 201
-202 33
-202 65
-33 -65 202
-203 -164
-203 -202
164 202 203
-204 34
-204 65
-34 -65 204
-205 -167
-205 -204
167 204 205
-206 35
-206 65
-35 -65 206
-207 -170
-207 -206
170 206 207
-208 36
-208 65
-36 -65 208
-209 -173
-209 -208
173 208 209
-210 37
-210 65
-37 -65 210
-211 -176
-211 -210
176 210 211
-212 38
-212 65
-38 -65 212
-213 -179
-213 -212
179 212 213
-214 39
-214 65
-39 -65 214
-215 -182
-215 -214
182 214 215
-216 40
-216 65
-40 -65 216
-217 -185
-217 -216
185 216 217
-218 41
-218 65
-41 -65 218
-219 -188
-219 -218
188 218 219
-220 42
-220 65
-42 -65 220
-221 -191
-221 -220
191 220 221
-222 -43
-222 151
43 -151 222
-223 -136
-223 -150
136 150 223
-223
